
Gurobi 8.1.0 (win64, Python) logging started 03/20/19 23:22:17

Academic license - for non-commercial use only

Gurobi 8.1.0 (win64, Python) logging started 03/21/19 16:00:17

Academic license - for non-commercial use only

Gurobi 8.1.0 (win64, Python) logging started 03/21/19 17:22:13

Academic license - for non-commercial use only
